585019
573557
573557
563912
563912
563912
563912
563912
550964
550964
550964
550964
550023
549409
546332
528631
528631
526149
525189
525189
520534
520534
519463
497734
497734
497734
497734
497734
497734
497734
497734
497734
497734
493683
493683
485840
485033
485033
485033
485033
485033
485033
482675
479192
479152
457854
457854
457854
457854
457854
457854
457854
457854
452134
452134
452134
452134
452134
452134
452134
435556
435556
435556
435556
435556
435556
435556
435132
435132
435132
435132
435132
429533
429533
428134
428134
428134
428134
426791
426791
426791
420147
420147
420147
420147
415096
415096
415096
415096
415096
415096
415096
411508
411508
410199
410199
410199
405179
405179
405179
